0 0 0 0
0 1 0 0
0 2 0 0
0 3 0 0
0 4 0 2
0 5 1 2
0 6 2 4
0 7 2 2
0 8 0 5
0 9 0 8
0 10 0 4
0 11 1 4
0 12 2 8
0 13 2 13
0 14 1 14
0 15 2 6
0 16 0 10
0 17 0 19
0 18 2 15
0 19 0 21
0 20 0 22
0 21 2 10
0 22 0 24
0 23 1 25
0 24 1 20
0 25 0 21
0 26 0 26
0 27 0 27
0 28 0 27
0 29 2 31
0 30 0 27
0 31 0 33
